c uprop, v00.0, 
c reading from data/prog113.c.cnf
c done reading: 0.003998
p cnf 140 630
-47 -68 0
-47 -64 0
47 64 68 0
-41 64 68 0
-41 -64 -68 0
41 64 -68 0
41 -64 68 0
47 -59 0
-57 -59 0
-47 57 59 0
-47 -52 57 0
47 -52 -57 0
47 52 57 0
-47 52 -57 0
-48 59 0
-45 -48 0
45 48 -59 0
-43 45 -59 0
-43 -45 59 0
43 45 59 0
43 -45 -59 0
-42 48 0
-39 -42 0
39 42 -48 0
39 -48 -66 0
-39 48 -66 0
39 48 66 0
-39 -48 66 0
42 -70 0
-61 -70 0
-42 61 70 0
-42 61 -71 0
42 -61 -71 0
42 61 71 0
-42 -61 71 0
70 -72 0
-54 -72 0
54 -70 72 0
54 -70 -73 0
-54 70 -73 0
54 70 73 0
-54 -70 73 0
72 -74 0
-50 -74 0
50 -72 74 0
50 -72 -75 0
-50 72 -75 0
50 72 75 0
-50 -72 75 0
64 -76 0
68 -76 0
-64 -68 76 0
-64 -68 -77 0
64 68 -77 0
-64 68 77 0
64 -68 77 0
-57 -64 78 0
-57 -76 78 0
-64 -76 78 0
57 64 -78 0
57 76 -78 0
64 76 -78 0
57 -78 -79 0
64 -78 -79 0
76 -78 -79 0
-57 78 79 0
-64 78 79 0
-76 78 79 0
-57 -64 -76 79 0
57 64 76 -79 0
-45 -57 80 0
-45 -78 80 0
-57 -78 80 0
45 57 -80 0
45 78 -80 0
57 78 -80 0
45 -80 -81 0
57 -80 -81 0
78 -80 -81 0
-45 80 81 0
-57 80 81 0
-78 80 81 0
-45 -57 -78 81 0
45 57 78 -81 0
-39 -45 82 0
-39 -80 82 0
-45 -80 82 0
39 45 -82 0
39 80 -82 0
45 80 -82 0
-37 39 -82 0
-37 45 -82 0
-37 80 -82 0
37 -39 82 0
37 -45 82 0
37 -80 82 0
37 -39 -45 -80 0
-37 39 45 80 0
36 -39 -61 0
36 -61 -82 0
36 -39 -82 0
-36 39 61 0
-36 61 82 0
-36 39 82 0
-35 -36 61 0
-35 -36 39 0
-35 -36 82 0
35 36 -61 0
35 36 -39 0
35 36 -82 0
35 -39 -61 -82 0
-35 39 61 82 0
34 -54 -61 0
34 -36 -54 0
34 -36 -61 0
-34 54 61 0
-34 36 54 0
-34 36 61 0
-33 -34 54 0
-33 -34 61 0
-33 -34 36 0
33 34 -54 0
33 34 -61 0
33 34 -36 0
33 -36 -54 -61 0
-33 36 54 61 0
32 -50 -54 0
32 -34 -50 0
32 -34 -54 0
-32 50 54 0
-32 34 50 0
-32 34 54 0
-32 50 -67 0
-32 54 -67 0
-32 34 -67 0
32 -50 67 0
32 -54 67 0
32 -34 67 0
-34 -50 -54 67 0
34 50 54 -67 0
50 -63 0
32 -63 0
-32 -50 63 0
-32 -50 -56 0
32 50 -56 0
32 -50 56 0
-32 50 56 0
-44 -68 0
-44 -77 0
44 68 77 0
-38 68 77 0
-38 -68 -77 0
38 -68 77 0
38 68 -77 0
44 -60 0
-60 -79 0
-44 60 79 0
-44 -53 79 0
44 -53 -79 0
44 53 79 0
-44 53 -79 0
-49 60 0
-49 -81 0
49 -60 81 0
-31 -60 81 0
-31 60 -81 0
31 60 81 0
31 -60 -81 0
-28 49 0
-28 -37 0
28 37 -49 0
-25 37 -49 0
-25 -37 49 0
25 37 49 0
25 -37 -49 0
-24 28 0
-24 -35 0
24 -28 35 0
-23 -28 35 0
-23 28 -35 0
23 28 35 0
23 -28 -35 0
-22 24 0
-22 -33 0
22 -24 33 0
-21 -24 33 0
-21 24 -33 0
21 24 33 0
21 -24 -33 0
-20 22 0
-20 -67 0
20 -22 67 0
-19 -22 67 0
-19 22 -67 0
19 22 67 0
19 -22 -67 0
-18 20 0
-18 -56 0
18 -20 56 0
-17 -20 56 0
-17 20 -56 0
17 20 56 0
17 -20 -56 0
-16 18 0
-16 -63 0
16 -18 63 0
-15 -18 63 0
-15 18 -63 0
15 18 63 0
15 -18 -63 0
-14 -29 0
-14 -26 0
14 26 29 0
26 29 -83 0
-26 -29 -83 0
26 -29 83 0
-26 29 83 0
14 -84 0
-84 -85 0
-14 84 85 0
-14 85 -87 0
14 -85 -87 0
14 85 87 0
-14 -85 87 0
84 -88 0
-88 -89 0
-84 88 89 0
-84 89 -91 0
84 -89 -91 0
84 89 91 0
-84 -89 91 0
88 -92 0
-92 -93 0
-88 92 93 0
-88 93 -95 0
88 -93 -95 0
88 93 95 0
-88 -93 95 0
92 -96 0
-96 -97 0
-92 96 97 0
-92 97 -99 0
92 -97 -99 0
92 97 99 0
-92 -97 99 0
96 -100 0
-100 -101 0
-96 100 101 0
-96 101 -103 0
96 -101 -103 0
96 101 103 0
-96 -101 103 0
100 -104 0
-104 -105 0
-100 104 105 0
-100 105 -107 0
100 -105 -107 0
100 105 107 0
-100 -105 107 0
26 -108 0
29 -108 0
-26 -29 108 0
-26 -29 -109 0
26 29 -109 0
-26 29 109 0
26 -29 109 0
-26 -85 110 0
-85 -108 110 0
-26 -108 110 0
26 85 -110 0
85 108 -110 0
26 108 -110 0
85 -110 -111 0
26 -110 -111 0
108 -110 -111 0
-85 110 111 0
-26 110 111 0
-108 110 111 0
-26 -85 -108 111 0
26 85 108 -111 0
-85 -89 112 0
-89 -110 112 0
-85 -110 112 0
85 89 -112 0
89 110 -112 0
85 110 -112 0
89 -112 -113 0
85 -112 -113 0
110 -112 -113 0
-89 112 113 0
-85 112 113 0
-110 112 113 0
-85 -89 -110 113 0
85 89 110 -113 0
-89 -93 114 0
-93 -112 114 0
-89 -112 114 0
89 93 -114 0
93 112 -114 0
89 112 -114 0
93 -114 -115 0
89 -114 -115 0
112 -114 -115 0
-93 114 115 0
-89 114 115 0
-112 114 115 0
-89 -93 -112 115 0
89 93 112 -115 0
-93 -97 116 0
-97 -114 116 0
-93 -114 116 0
93 97 -116 0
97 114 -116 0
93 114 -116 0
97 -116 -117 0
93 -116 -117 0
114 -116 -117 0
-97 116 117 0
-93 116 117 0
-114 116 117 0
-93 -97 -114 117 0
93 97 114 -117 0
-97 -101 118 0
-101 -116 118 0
-97 -116 118 0
97 101 -118 0
101 116 -118 0
97 116 -118 0
101 -118 -119 0
97 -118 -119 0
116 -118 -119 0
-101 118 119 0
-97 118 119 0
-116 118 119 0
-97 -101 -116 119 0
97 101 116 -119 0
-101 -105 120 0
-105 -118 120 0
-101 -118 120 0
101 105 -120 0
105 118 -120 0
101 118 -120 0
105 -120 -121 0
101 -120 -121 0
118 -120 -121 0
-105 120 121 0
-101 120 121 0
-118 120 121 0
-101 -105 -118 121 0
101 105 118 -121 0
105 -122 0
120 -122 0
-105 -120 122 0
-105 -120 -123 0
105 120 -123 0
-105 120 123 0
105 -120 123 0
111 -124 0
29 -124 0
-29 -111 124 0
-29 -111 -125 0
29 111 -125 0
29 -111 125 0
-29 111 125 0
-26 -113 126 0
-113 -124 126 0
-26 -124 126 0
26 113 -126 0
113 124 -126 0
26 124 -126 0
113 -126 -127 0
26 -126 -127 0
124 -126 -127 0
-113 126 127 0
-26 126 127 0
-124 126 127 0
-26 -113 -124 127 0
26 113 124 -127 0
-85 -115 128 0
-115 -126 128 0
-85 -126 128 0
85 115 -128 0
115 126 -128 0
85 126 -128 0
115 -128 -129 0
85 -128 -129 0
126 -128 -129 0
-115 128 129 0
-85 128 129 0
-126 128 129 0
-85 -115 -126 129 0
85 115 126 -129 0
-89 -117 130 0
-117 -128 130 0
-89 -128 130 0
89 117 -130 0
117 128 -130 0
89 128 -130 0
117 -130 -131 0
89 -130 -131 0
128 -130 -131 0
-117 130 131 0
-89 130 131 0
-128 130 131 0
-89 -117 -128 131 0
89 117 128 -131 0
-93 -119 132 0
-119 -130 132 0
-93 -130 132 0
93 119 -132 0
119 130 -132 0
93 130 -132 0
119 -132 -133 0
93 -132 -133 0
130 -132 -133 0
-119 132 133 0
-93 132 133 0
-130 132 133 0
-93 -119 -130 133 0
93 119 130 -133 0
-97 -121 134 0
-121 -132 134 0
-97 -132 134 0
97 121 -134 0
121 132 -134 0
97 132 -134 0
121 -134 -135 0
97 -134 -135 0
132 -134 -135 0
-121 134 135 0
-97 134 135 0
-132 134 135 0
-97 -121 -132 135 0
97 121 132 -135 0
-101 -123 136 0
-123 -134 136 0
-101 -134 136 0
101 123 -136 0
123 134 -136 0
101 134 -136 0
123 -136 -137 0
101 -136 -137 0
134 -136 -137 0
-123 136 137 0
-101 136 137 0
-134 136 137 0
-101 -123 -134 137 0
101 123 134 -137 0
-105 -122 138 0
-122 -136 138 0
-105 -136 138 0
105 122 -138 0
122 136 -138 0
105 136 -138 0
122 -138 -139 0
105 -138 -139 0
136 -138 -139 0
-122 138 139 0
-105 138 139 0
-136 138 139 0
-105 -122 -136 139 0
105 122 136 -139 0
-29 -140 0
-109 -140 0
29 109 140 0
29 -69 109 0
-29 -69 -109 0
-29 69 109 0
29 69 -109 0
-65 140 0
-65 -125 0
65 125 -140 0
-58 125 -140 0
-58 -125 140 0
58 125 140 0
58 -125 -140 0
-46 65 0
-46 -127 0
46 -65 127 0
-40 -65 127 0
-40 65 -127 0
40 65 127 0
40 -65 -127 0
46 -62 0
-62 -129 0
-46 62 129 0
-46 -55 129 0
46 -55 -129 0
46 55 129 0
-46 55 -129 0
-51 62 0
-51 -131 0
51 -62 131 0
-30 -62 131 0
-30 62 -131 0
30 62 131 0
30 -62 -131 0
-27 51 0
-27 -133 0
27 -51 133 0
-51 -86 133 0
51 -86 -133 0
51 86 133 0
-51 86 -133 0
27 -90 0
-90 -135 0
-27 90 135 0
-27 -94 135 0
27 -94 -135 0
27 94 135 0
-27 94 -135 0
90 -98 0
-98 -137 0
-90 98 137 0
-90 -102 137 0
90 -102 -137 0
90 102 137 0
-90 102 -137 0
98 -106 0
-106 -139 0
-98 106 139 0
-13 -98 139 0
-13 98 -139 0
13 98 139 0
13 -98 -139 0
-12 106 0
-12 -138 0
12 -106 138 0
-11 -106 138 0
-11 106 -138 0
11 106 138 0
11 -106 -138 0
-10 68 0
-10 29 0
10 -29 -68 0
-29 -68 0
29 68 0
9 -77 -109 0
9 -10 -77 0
9 -10 -109 0
-9 77 109 0
-9 10 77 0
-9 10 109 0
-9 77 0
-9 109 0
-9 10 0
10 77 109 0
8 -79 -125 0
8 -9 -79 0
8 -9 -125 0
-8 79 125 0
-8 9 79 0
-8 9 125 0
-8 79 0
-8 125 0
-8 9 0
9 79 125 0
7 -81 -127 0
7 -8 -81 0
7 -8 -127 0
-7 81 127 0
-7 8 81 0
-7 8 127 0
7 -81 0
7 -127 0
7 -8 0
-8 -81 -127 0
6 -37 -129 0
6 -7 -37 0
6 -7 -129 0
-6 37 129 0
-6 7 37 0
-6 7 129 0
6 -37 0
6 -129 0
6 -7 0
-7 -37 -129 0
5 -35 -131 0
5 -6 -35 0
5 -6 -131 0
-5 35 131 0
-5 6 35 0
-5 6 131 0
5 -35 0
5 -131 0
5 -6 0
-6 -35 -131 0
4 -33 -133 0
4 -5 -33 0
4 -5 -133 0
-4 33 133 0
-4 5 33 0
-4 5 133 0
-4 33 0
-4 133 0
-4 5 0
5 33 133 0
3 -67 -135 0
3 -4 -67 0
3 -4 -135 0
-3 67 135 0
-3 4 67 0
-3 4 135 0
3 -67 0
3 -135 0
3 -4 0
-4 -67 -135 0
2 -56 -137 0
2 -3 -56 0
2 -3 -137 0
-2 56 137 0
-2 3 56 0
-2 3 137 0
2 -56 0
2 -137 0
2 -3 0
-3 -56 -137 0
1 -63 -139 0
1 -2 -63 0
1 -2 -139 0
-1 63 139 0
-1 2 63 0
-1 2 139 0
1 -63 0
1 -139 0
1 -2 0
-2 -63 -139 0
-1 -138 0
1 -138 0
-1 138 0
